Problem:    
Rows:       54
Columns:    54 (54 integer, 0 binary)
Non-zeros:  142
Status:     INTEGER OPTIMAL
Objective:  obj = 2.7907132 (MINimum)

   No.   Row name        Activity     Lower bound   Upper bound
------ ------------    ------------- ------------- -------------
     1 r.5                         0             0               
     2 r.6                         0             0               
     3 r.7                         0             0               
     4 r.8                         0             0               
     5 r.9                         0             0               
     6 r.10                        0             0               
     7 r.11                        0             0               
     8 r.12                        0             0               
     9 r.13                        0             0               
    10 r.14                        0             0               
    11 r.15                        0             0               
    12 r.16                        0             0               
    13 r.17                        0             0               
    14 r.18                        0             0               
    15 r.19                        0             0               
    16 r.20                        0             0               
    17 r.21                        0             0               
    18 r.22                        0             0               
    19 r.23                        0             0               
    20 r.24                        0             0               
    21 r.25                        0             0               
    22 r.26                        0             0               
    23 r.27                        0             0               
    24 r.28                        0             0               
    25 r.29                        0             0               
    26 r.30                        0             0               
    27 r.31                        0             0               
    28 r.32                        0             0               
    29 r.33                        0             0               
    30 r.34                        0             0               
    31 r.35                        0             0               
    32 r.36                        0             0               
    33 r.37                        0             0               
    34 r.38                        0             0               
    35 r.39                        0             0               
    36 r.40                        0             0               
    37 r.41                        0             0               
    38 r.42                        0             0               
    39 r.43                        0             0               
    40 r.44                        0             0               
    41 r.45                        0             0               
    42 r.46                        0             0               
    43 r.47                        0             0               
    44 r.48                        0             0               
    45 r.49                        1             1             = 
    46 r.50                        1             1             = 
    47 r.51                        1             1             = 
    48 r.52                        1             1             = 
    49 r.53                        1             1             = 
    50 r.54                        1             1             = 
    51 r.55                        1             1             = 
    52 r.56                        1             1             = 
    53 r.57                        1             1             = 
    54 r.58                        1             1             = 

   No. Column name       Activity     Lower bound   Upper bound
------ ------------    ------------- ------------- -------------
     1 y0           *              0             0               
     2 y1           *              0             0               
     3 y2           *              0             0               
     4 y3           *              1             0               
     5 y4           *              0             0               
     6 y5           *              1             0               
     7 y6           *              0             0               
     8 y7           *              0             0               
     9 y8           *              1             0               
    10 y9           *              0             0               
    11 x(0#1)       *              0             0               
    12 x(0#6)       *              0             0               
    13 x(0#8)       *              0             0               
    14 x(1#0)       *              0             0               
    15 x(1#2)       *              0             0               
    16 x(1#6)       *              0             0               
    17 x(1#8)       *              0             0               
    18 x(1#9)       *              0             0               
    19 x(2#1)       *              0             0               
    20 x(2#4)       *              0             0               
    21 x(2#6)       *              0             0               
    22 x(2#7)       *              0             0               
    23 x(2#8)       *              0             0               
    24 x(2#9)       *              0             0               
    25 x(4#2)       *              0             0               
    26 x(4#6)       *              0             0               
    27 x(4#7)       *              0             0               
    28 x(4#8)       *              0             0               
    29 x(4#9)       *              0             0               
    30 x(6#0)       *              0             0               
    31 x(6#1)       *              0             0               
    32 x(6#2)       *              0             0               
    33 x(6#4)       *              0             0               
    34 x(6#7)       *              0             0               
    35 x(6#8)       *              0             0               
    36 x(6#9)       *              0             0               
    37 x(7#2)       *              0             0               
    38 x(7#4)       *              0             0               
    39 x(7#6)       *              0             0               
    40 x(7#8)       *              0             0               
    41 x(7#9)       *              0             0               
    42 x(8#0)       *              1             0               
    43 x(8#1)       *              1             0               
    44 x(8#2)       *              1             0               
    45 x(8#4)       *              1             0               
    46 x(8#6)       *              1             0               
    47 x(8#7)       *              1             0               
    48 x(8#9)       *              1             0               
    49 x(9#1)       *              0             0               
    50 x(9#2)       *              0             0               
    51 x(9#4)       *              0             0               
    52 x(9#6)       *              0             0               
    53 x(9#7)       *              0             0               
    54 x(9#8)       *              0             0               

Integer feasibility conditions:

KKT.PE: max.abs.err = 0.00e+00 on row 0
        max.rel.err = 0.00e+00 on row 0
        High quality

KKT.PB: max.abs.err = 0.00e+00 on row 0
        max.rel.err = 0.00e+00 on row 0
        High quality

End of output
